# SCIP version 3.0.0

sepa/basis/enable = TRUE

sepa/basis/genobjconvex = FALSE

sepa/basis/objconvex = 1.0

sepa/basis/enableobj = TRUE

sepa/basis/enableobjround = TRUE

sepa/basis/enableposslack = TRUE

sepa/basis/posslackexp = 8



lp/iterlim = -1

lp/rootiterlim = -1

conflict/enable = FALSE

detectors/random/enabled = FALSE

separating/poolfreq = -1 fix
